Maximize
  obj: 
Subject to
  constraint_000001: frame_x_5 = 0
  constraint_000002: frame_y_6 = 0
  constraint_000003: frame_width_7 = 300
  constraint_000004: frame_height_8 = 150
  constraint_000005: -0.1 frame_width_7 + line_x1_9 = 0
  constraint_000006: -0.1 frame_height_8 + line_y1_10 = 0
  constraint_000007: -0.9 frame_width_7 + line_x2_11 = 0
  constraint_000008: -0.9 frame_width_7 + line_y2_12 = 0
End
